NAME : local_3
TYPE : ATSP
DIMENSION : 9
EDGE_WEIGHT_TYPE : EXPLICIT
EDGE_WEIGHT_FORMAT : FULL_MATRIX
EDGE_WEIGHT_SECTION
0 10000000 10000000 296 567 10000000 887 10000000 948 
0 0 119 10000000 10000000 474 10000000 530 10000000 
0 119 0 10000000 10000000 356 10000000 413 911 
0 10000000 10000000 0 769 10000000 918 10000000 971 
0 10000000 10000000 769 0 10000000 868 1059 806 
0 474 356 10000000 10000000 0 965 236 665 
0 10000000 10000000 918 868 965 0 823 260 
0 530 413 10000000 1037 236 797 0 525 
0 10000000 10000000 10000000 10000000 10000000 10000000 10000000 0 
EOF